c description: There is a graph of 3 vertices with a 3-clique and a 8-coloring
c generator: CNFgen (0.9.0)
c copyright: (C) 2012-2020 Massimo Lauria <massimo.lauria@uniroma1.it>
c url: https://massimolauria.net/cnfgen
c
p cnf 36 150
-4 -5 0
-4 -6 0
-5 -6 0
4 5 6 0
-7 -8 0
-7 -9 0
-8 -9 0
7 8 9 0
-10 -11 0
-10 -12 0
-11 -12 0
10 11 12 0
-4 -7 0
-4 -10 0
-7 -10 0
-5 -8 0
-5 -11 0
-8 -11 0
-6 -9 0
-6 -12 0
-9 -12 0
1 -4 -8 0
1 -4 -11 0
1 -7 -5 0
1 -7 -11 0
1 -10 -5 0
1 -10 -8 0
2 -4 -9 0
2 -4 -12 0
2 -7 -6 0
2 -7 -12 0
2 -10 -6 0
2 -10 -9 0
3 -5 -9 0
3 -5 -12 0
3 -8 -6 0
3 -8 -12 0
3 -11 -6 0
3 -11 -9 0
-13 -14 0
-13 -15 0
-13 -16 0
-13 -17 0
-13 -18 0
-13 -19 0
-13 -20 0
-14 -15 0
-14 -16 0
-14 -17 0
-14 -18 0
-14 -19 0
-14 -20 0
-15 -16 0
-15 -17 0
-15 -18 0
-15 -19 0
-15 -20 0
-16 -17 0
-16 -18 0
-16 -19 0
-16 -20 0
-17 -18 0
-17 -19 0
-17 -20 0
-18 -19 0
-18 -20 0
-19 -20 0
13 14 15 16 17 18 19 20 0
-21 -22 0
-21 -23 0
-21 -24 0
-21 -25 0
-21 -26 0
-21 -27 0
-21 -28 0
-22 -23 0
-22 -24 0
-22 -25 0
-22 -26 0
-22 -27 0
-22 -28 0
-23 -24 0
-23 -25 0
-23 -26 0
-23 -27 0
-23 -28 0
-24 -25 0
-24 -26 0
-24 -27 0
-24 -28 0
-25 -26 0
-25 -27 0
-25 -28 0
-26 -27 0
-26 -28 0
-27 -28 0
21 22 23 24 25 26 27 28 0
-29 -30 0
-29 -31 0
-29 -32 0
-29 -33 0
-29 -34 0
-29 -35 0
-29 -36 0
-30 -31 0
-30 -32 0
-30 -33 0
-30 -34 0
-30 -35 0
-30 -36 0
-31 -32 0
-31 -33 0
-31 -34 0
-31 -35 0
-31 -36 0
-32 -33 0
-32 -34 0
-32 -35 0
-32 -36 0
-33 -34 0
-33 -35 0
-33 -36 0
-34 -35 0
-34 -36 0
-35 -36 0
29 30 31 32 33 34 35 36 0
-1 -13 -21 0
-1 -14 -22 0
-1 -15 -23 0
-1 -16 -24 0
-1 -17 -25 0
-1 -18 -26 0
-1 -19 -27 0
-1 -20 -28 0
-2 -13 -29 0
-2 -14 -30 0
-2 -15 -31 0
-2 -16 -32 0
-2 -17 -33 0
-2 -18 -34 0
-2 -19 -35 0
-2 -20 -36 0
-3 -21 -29 0
-3 -22 -30 0
-3 -23 -31 0
-3 -24 -32 0
-3 -25 -33 0
-3 -26 -34 0
-3 -27 -35 0
-3 -28 -36 0